NAME: GRASP_44_12
TYPE: TSP
COMMENT: line_44_12
DIMENSION: 44
EDGE_WEIGHT_TYPE: EUC_2D
NODE_COORD_SECTION
1 1526 3151
2 3548 939
3 4816 2534
4 1619 4505
5 1272 3193
6 1984 2365
7 2698 1198
8 2082 1487
9 2771 2577
10 3342 1631
11 4055 1204
12 2335 3996
13 1094 2835
14 4264 489
15 3382 1407
16 4179 3611
17 3098 4453
18 1535 1226
19 1205 751
20 4488 784
21 2622 3346
22 3034 414
23 3469 2783
24 4648 2877
25 1765 3265
26 4159 516
27 4830 2962
28 776 1805
29 4117 4770
30 159 824
31 4251 1024
32 1754 2262
33 2021 1415
34 633 419
35 1734 948
36 2734 3390
37 3203 3669
38 1256 1771
39 4273 1045
40 4146 4678
41 502 3911
42 1465 2009
43 1519 195
44 3214 4841
